LAMMPS input merging    2 separate data files.

                  17 atoms
                  15 bonds
                  23 angles
                  17 dihedrals
                  13 impropers
                  21 atom types
                  20 bond types
                  31 angle types
                  28 dihedral types
                  17 improper types

      0.00000000E+00      4.00000000E+01 xlo xhi
      0.00000000E+00      2.00000000E+01 ylo yhi
      0.00000000E+00      2.00000000E+01 zlo zhi


Masses

   1             12.0110
   2             12.0110
   3              1.0080
   4              1.0080
   5             15.9990
   6             15.9990
   7             12.0110
   8              1.0080
   9              1.0080
  10             15.9990
  11              1.0080
  12             15.9990
  13              1.0080
  14             15.9990
  15             14.0070
  16             12.0110
  17             12.0110
  18             14.0070
  19             14.0070
  20             14.0070
  21             15.9990

Atoms

                   1                   1   2 -0.180000     -2.32891000E+00     -8.70209000E-01     -2.51444000E-01
                   2                   1   2  0.190000     -8.09603000E-01     -9.81436000E-01     -4.14558000E-01
                   3                   1   6 -0.330000     -2.10149000E-01      2.59958000E-01     -6.53800000E-02
                   4                   1   1  0.510000      1.05346400E+00      5.22771000E-01     -4.60591000E-01
                   5                   1   5 -0.430000      1.87287200E+00     -3.56433000E-01     -1.94185000E-01
                   6                   1   2 -0.180000      1.09583100E+00      1.60171700E+00      6.32356000E-01
                   7                   1   3  0.060000     -2.81866000E+00     -1.80128600E+00     -5.36864000E-01
                   8                   1   3  0.060000     -2.73347600E+00     -7.50790000E-02     -8.77372000E-01
                   9                   1   3  0.060000     -2.59803100E+00     -6.55047000E-01      7.82372000E-01
                  10                   1   4  0.030000     -5.69572000E-01     -1.25345400E+00     -1.44506300E+00
                  11                   1   4  0.030000     -4.20916000E-01     -1.76833900E+00      2.34770000E-01
                  12                   1   3  0.060000      3.21084000E-01      2.36660900E+00      5.24035000E-01
                  13                   1   3  0.060000      2.05042400E+00      2.12361600E+00      5.52678000E-01
                  14                   1   3  0.060000      1.05249500E+00      1.18144100E+00      1.64029800E+00
                  15                   2  12 -0.830000     -2.38800000E-02      2.61200000E-02     -2.14000000E-02
                  16                   2  11  0.415000      9.32740000E-01     -6.74000000E-03      5.52000000E-03
                  17                   2  11  0.415000     -3.02680000E-01     -6.82480000E-01      5.59180000E-01

Bonds

           1           1           2           1
           2           2           2           3
           3           3           4           3
           4           4           4           5
           5           5           4           6
           6           6           1           7
           7           6           1           8
           8           6           1           9
           9           7           2          10
          10           7           2          11
          11           6           6          12
          12           6           6          13
          13           6           6          14
          14          12          16          15
          15          12          17          15

Angles

           1           1           2           1           7
           2           1           2           1           8
           3           1           2           1           9
           4           2           8           1           7
           5           2           9           1           7
           6           2           9           1           8
           7           3           1           2           3
           8           4           1           2          10
           9           4           1           2          11
          10           5          10           2           3
          11           5          11           2           3
          12           6          11           2          10
          13           7           4           3           2
          14           8           5           4           3
          15           9           6           4           3
          16          10           6           4           5
          17          11           4           6          12
          18          11           4           6          13
          19          11           4           6          14
          20           2          13           6          12
          21           2          14           6          12
          22           2          14           6          13
          23          18          17          15          16

Dihedrals

           1           1           7           1           2           3
           2           2           7           1           2          10
           3           2           7           1           2          11
           4           1           8           1           2           3
           5           2           8           1           2          10
           6           2           8           1           2          11
           7           1           9           1           2           3
           8           2           9           1           2          10
           9           2           9           1           2          11
          10           3           1           2           3           4
          11           4          10           2           3           4
          12           4          11           2           3           4
          13           5           5           4           3           2
          14           6           6           4           3           2
          15           7           3           4           6          12
          16           7           3           4           6          13
          17           7           3           4           6          14

Impropers

           1           1           2           1           7           8
           2           1           2           1           7           9
           3           1           2           1           8           9
           4           2           7           1           8           9
           5           3           1           2          10           3
           6           3           1           2          11           3
           7           4           1           2          10          11
           8           5          10           2          11           3
           9           6           6           4           5           3
          10           7           4           6          12          13
          11           7           4           6          12          14
          12           7           4           6          13          14
          13           2          12           6          13          14
